# Objective value = 63
WA1n 0
WA1p 0
WA2n 1
WA2p 0
WB1n 0
WB1p 0
WB2n 1
WB2p 0
WC1n 0
WC1p 1
WD1n 0
WD1p 1
WE1n 0
WE1p 2
WE2n 0
WE2p 1
WF1n 3
WF1p 0
WF2n 1
WF2p 0
WG1n 0
WG1p 3
WG2n 0
WG2p 1
WH1n 0
WH1p 3
WH2n 0
WH2p 1
WI1n 13
WI1p 0
WJ1n 0
WJ1p 13
WT1n 0
WT1p 12
5 7
a 0
b 0
c 0
d 0
e 1
f 1
g 1
h 1
i 0
j 0
k 1
l 1
m 1
n 1
o 0
p 1
q 1
